c Sudoku solution
p cnf 729 0
219 0
251 0
262 0
288 0
326 0
368 0
394 0
511 0
569 0
587 0
596 0
616 0
645 0
673 0
698 0
754 0
797 0
815 0
827 0
842 0
913 0
936 0
957 0
652 0
985 0
765 0
961 0
441 0
681 0
999 0
948 0
495 0
192 0
891 0
293 0
389 0
186 0
246 0
479 0
776 0
878 0
225 0
234 0
277 0
414 0
629 0
637 0
482 0
574 0
467 0
456 0
664 0
543 0
558 0
924 0
839 0
749 0
783 0
972 0
884 0
522 0
535 0
347 0
117 0
312 0
718 0
732 0
721 0
144 0
163 0
355 0
159 0
128 0
333 0
131 0
175 0
371 0
423 0
438 0
853 0
866 0
